n = 32;
budget = 250000;
groceries = [|21,238,105,161,3613|70,231,7,73,1963|108,162,36,144,3282|36,108,12,82,2887|216,112,208,156,3126|72,88,112,143,2724|176,80,56,72,1049|104,288,160,50,1440|135,95,10,58,3783|200,184,136,144,2765|90,60,200,162,1387|50,160,145,87,3344|50,130,95,166,1154|78,426,132,95,3293|40,152,216,134,3972|14,280,7,200,2895|35,175,210,152,3115|48,104,240,54,1686|72,276,150,173,1745|8,280,160,159,3483|70,30,730,103,3947|25,85,25,200,2016|18,84,108,107,3351|18,216,45,151,3693|88,224,528,186,1510|32,208,280,181,918|96,48,600,145,842|16,8,32,62,1892|40,20,80,143,2251|42,7,217,183,1859|56,14,119,144,856|112,456,48,107,2346|];
requirements = [|760,1012|4000,4400|1140,1364|];
variety = 34;